result/a280.dat
280
0 1 279 2 278 277 257 258 259 260 261 262 263 264 265 266 267 268 269 133 134 135 136 137 138 139 140 141 142 143 203 204 205 206 209 208 207 252 253 256 255 254 251 248 247 242 241 240 239 238 237 236 235 234 233 232 231 230 245 244 243 246 249 250 229 228 227 226 225 224 223 222 221 218 217 214 213 210 211 212 215 216 219 220 202 201 199 200 195 194 191 190 189 188 187 164 165 166 167 169 170 171 173 172 105 106 104 103 102 101 168 100 99 98 97 96 95 94 93 92 91 90 89 107 108 88 79 78 77 76 74 73 72 71 75 80 81 82 87 111 109 110 112 86 83 85 115 113 114 116 117 60 61 62 63 64 84 65 70 69 66 68 67 57 58 59 42 41 40 39 38 47 46 45 44 43 56 55 54 53 52 51 50 49 48 37 36 35 34 33 32 31 28 27 26 25 21 24 22 23 13 12 11 10 9 7 6 4 5 8 14 17 18 19 20 127 126 125 30 29 124 123 122 121 120 119 118 156 157 158 159 174 160 161 162 163 181 182 183 184 186 185 192 193 196 197 198 144 145 146 147 148 149 177 178 179 180 175 176 150 151 155 152 154 153 128 129 130 131 132 16 15 270 271 272 273 274 275 276 3 
